nb_dom_cuts = 3782
root_relax = 964.0
QCR_time = 45.1961
nb_dom_cuts = 3782
opt = true
obj_val = 964.0
solved_time = 1.6224
explored_nodes = 1911
nb_dom_cuts = 3782
4601.txt"
Set parameter Presolve to value 0
Set parameter AggFill to value -1
Set parameter Aggregate to value 0
Set parameter Heuristics to value 0
Set parameter LPWarmStart to value 0
Set parameter NLPHeur to value 0
Set parameter NoRelHeurTime to value 0
Set parameter PreCrush to value 0
Set parameter PreDepRow to value 0
Set parameter PreDual to value 0
Set parameter PrePasses to value -1
Set parameter RINS to value 0
Set parameter Symmetry to value 0
Set parameter PreQLinearize to value 0
Set parameter NonConvex to value 0

Gurobi 12.0.0 (linux64) logging started Fri Feb  7 15:13:36 2025

Set parameter LogFile to value "./res/Gurobi/Dom_QCR_QP/bcc24601.txt"
Set parameter PreCrush to value 0
Set parameter PrePasses to value -1
Set parameter AggFill to value -1
Set parameter NoRelHeurTime to value 0
Set parameter NLPHeur to value 0
Set parameter NonConvex to value 0
Set parameter LPWarmStart to value 0
Set parameter PreDepRow to value 0
Set parameter Symmetry to value 0
Set parameter Presolve to value 0
Gurobi Optimizer version 12.0.0 build v12.0.0rc1 (linux64 - "Debian GNU/Linux 12 (bookworm)")

CPU model: Intel(R) Xeon(R) CPU E5-2650 v3 @ 2.30GHz, instruction set [SSE2|AVX|AVX2]
Thread count: 20 physical cores, 40 logical processors, using up to 20 threads

Non-default parameters:
TimeLimit  1800
LPWarmStart  0
Heuristics  0
RINS  0
NLPHeur  0
Symmetry  0
Aggregate  0
PreDual  0
NonConvex  0
PreDepRow  0
PreQLinearize  0
Presolve  0

Optimize a model with 3782 rows, 63 columns and 120850 nonzeros
Model fingerprint: 0xe8359878
Model has 1957 quadratic objective terms
Variable types: 0 continuous, 63 integer (63 binary)
Coefficient statistics:
  Matrix range     [1e+00, 1e+00]
  Objective range  [6e+00, 6e+01]
  QObjective range [2e+00, 6e+00]
  Bounds range     [0e+00, 0e+00]
  RHS range        [1e+00, 3e+01]
Variable types: 0 continuous, 63 integer (63 binary)

Root relaxation: objective -9.640002e+02, 94 iterations, 0.03 seconds (0.02 work units)

    Nodes    |    Current Node    |     Objective Bounds      |     Work
 Expl Unexpl |  Obj  Depth IntInf | Incumbent    BestBd   Gap | It/Node Time

     0     0 -964.00016    0   63          - -964.00016      -     -    0s
     0     0 -964.00015    0   63          - -964.00015      -     -    0s
     0     2 -964.00015    0   63          - -964.00015      -     -    0s
*  552  1858              62    -964.0000000 -964.00014  0.00%   2.0    1s

Explored 1911 nodes (3929 simplex iterations) in 1.62 seconds (0.99 work units)
Thread count was 20 (of 40 available processors)

Solution count 1: -964 

Optimal solution found (tolerance 1.00e-04)
Best objective -9.640000000000e+02, best bound -9.640001369471e+02, gap 0.0000%

User-callback calls 4157, time in user-callback 0.00 sec
